NAME : hk48.31375.tour
COMMENT : Cost = 0_31375
COMMENT : Found by LKH [Keld Helsgaun] Thu Nov 16 16:23:55 2017
TYPE : TOUR
DIMENSION : 67
TOUR_SECTION
1
2
49
37
50
16
51
11
52
42
53
15
54
48
55
43
56
27
57
24
58
35
59
4
60
21
61
26
62
17
63
44
64
33
30
23
9
10
40
36
34
6
8
47
7
38
14
18
12
22
13
28
32
25
3
5
29
41
66
46
45
39
65
31
20
67
19
-1
EOF
